1614470
23 49 4353
49 19 8895
19 1 22804
1 12 10465
12 42 4831
42 3 13084
3 21 17216
21 61 26988
61 24 5437
24 47 15612
47 54 18520
54 13 13536
13 65 18316
65 20 13332
20 4 4440
4 48 7248
48 63 23516
63 16 14689
16 2 21569
2 45 15587
45 27 8214
27 17 1445
17 9 5356
9 58 1777
58 15 6904
15 8 6874
8 36 11459
36 59 8563
59 28 24825
28 50 10810
50 68 52828
68 35 19070
35 51 8926
51 39 11004
39 62 8740
62 37 30446
37 53 6554
53 44 84806
44 14 62420
14 10 62052
10 18 28652
18 57 27906
57 33 88918
33 52 101509
52 22 46274
22 31 39447
31 38 91427
38 67 15200
67 7 19183
7 43 52950
43 46 69394
46 34 36286
34 55 20835
55 26 61621
26 66 57991
66 11 13370
11 64 35955
64 6 32039
6 41 10602
41 30 5056
30 25 1249
25 29 9940
29 56 11125
56 32 1427
32 40 3996
40 5 3130
5 60 7979
60 23 7498
